{"name": "Hermine Agavni Kalustyan", "content": "Hermine Agavni Kalustyan (Armenian: \u0540\u0565\u0580\u0574\u056b\u0576\u0567 \u0531\u0572\u0561\u0582\u0576\u056b \u0533\u0561\u056c\u0578\u0582\u057d\u057f\u0565\u0561\u0576, 1914 \u2013 September 3, 1989) was an Armenian-Turkish mathematician, educator, and politician. \n Kalustyan was born in 1914 in Istanbul. She graduated from Paris High School Teacher Training School and from Istanbul University Mathematics Department. In 1941, she wrote her dissertation titled \"Conformal depiction and the movement of an object\" in the Istanbul University under Richard von Mises and William Prager.[1] Between 1948 and 1973, Kalustyan was appointed principal at Esayan Armenian High School, and taught mathematics at the Galatasaray High School in Istanbul, Turkey. In 1961, she became the republic's first non-Muslim minority woman to serve in parliament[2] with her appointment to the transitional parliament (1960\u20131961) that constructed the 1961 Constitution.[3][4] In 1975, she published an Armenian book titled, \"Towards the Past and Now: Towards Fezaya\".\n \n This article about a Turkish politician is a stub. You can help Wikipedia by expanding it. ", "tags": ["1914 births", "1989 deaths", "Armenian mathematicians", "Turkish mathematicians", "Women mathematicians", "Istanbul University alumni", "Turkish politician stubs", "CS1 errors: missing periodical", "Articles with short description", "Short description matches Wikidata", "Articles containing Armenian-language text", "Wikipedia articles with MGP identifiers", "All stub articles"], "raw": "Turkish mathematician and politician\nHermine Agavni Kalustyan (Armenian: \u0540\u0565\u0580\u0574\u056b\u0576\u0567 \u0531\u0572\u0561\u0582\u0576\u056b \u0533\u0561\u056c\u0578\u0582\u057d\u057f\u0565\u0561\u0576, 1914 \u2013 September 3, 1989) was an Armenian-Turkish mathematician, educator, and politician. \nKalustyan was born in 1914 in Istanbul. She graduated from Paris High School Teacher Training School and from Istanbul University Mathematics Department. In 1941, she wrote her dissertation titled \"Conformal depiction and the movement of an object\" in the Istanbul University under Richard von Mises and William Prager.[1] Between 1948 and 1973, Kalustyan was appointed principal at Esayan Armenian High School, and taught mathematics at the Galatasaray High School in Istanbul, Turkey. In 1961, she became the republic's first non-Muslim minority woman to serve in parliament[2] with her appointment to the transitional parliament (1960\u20131961) that constructed the 1961 Constitution.[3][4] In 1975, she published an Armenian book titled, \"Towards the Past and Now: Towards Fezaya\".\n\nReferences[edit]\n\n\n^ Hermine Agavni Kalustyan at the Mathematics Genealogy Project\n\n^ \"51 Years Later Armenians Return to the Turkish Parliament\".\n\n^ Gauin, Maxime. \"Meline Toumani and the Turkic-Armenian Conflict\". Cite journal requires |journal= (help)\n\n^ http://www.lse.ac.uk/europeanInstitute/research/LSEE/PDFs/PhD%20Symposium/Papers%202010/Culhaoglu.pdf\n\n\nAuthority control \nMGP: 148656\n\n\n\nThis article about a Turkish politician is a stub. You can help Wikipedia by expanding it.vte\n\n\n\n", "Hermine": 0.0072992700729927005, "Agavni": 0.0072992700729927005, "Kalustyan": 0.021897810218978103, "Armenian": 0.021897810218978103, "\u0540\u0565\u0580\u0574\u056b\u0576\u0567": 0.0072992700729927005, "\u0531\u0572\u0561\u0582\u0576\u056b": 0.0072992700729927005, "\u0533\u0561\u056c\u0578\u0582\u057d\u057f\u0565\u0561\u0576": 0.0072992700729927005, "September": 0.0072992700729927005, "was": 0.021897810218978103, "an": 0.021897810218978103, "ArmenianTurkish": 0.0072992700729927005, "mathematician": 0.0072992700729927005, "educator": 0.0072992700729927005, "and": 0.051094890510948905, "politician": 0.014598540145985401, "born": 0.0072992700729927005, "in": 0.0364963503649635, "Istanbul": 0.029197080291970802, "She": 0.0072992700729927005, "graduated": 0.0072992700729927005, "from": 0.014598540145985401, "Paris": 0.0072992700729927005, "High": 0.021897810218978103, "School": 0.029197080291970802, "Teacher": 0.0072992700729927005, "Training": 0.0072992700729927005, "University": 0.014598540145985401, "Mathematics": 0.0072992700729927005, "Department": 0.0072992700729927005, "In": 0.021897810218978103, "she": 0.021897810218978103, "wrote": 0.0072992700729927005, "her": 0.014598540145985401, "dissertation": 0.0072992700729927005, "titled": 0.014598540145985401, "Conformal": 0.0072992700729927005, "depiction": 0.0072992700729927005, "the": 0.051094890510948905, "movement": 0.0072992700729927005, "of": 0.0072992700729927005, "object": 0.0072992700729927005, "under": 0.0072992700729927005, "Richard": 0.0072992700729927005, "von": 0.0072992700729927005, "Mises": 0.0072992700729927005, "William": 0.0072992700729927005, "Prager": 0.0072992700729927005, "Between": 0.0072992700729927005, "appointed": 0.0072992700729927005, "principal": 0.0072992700729927005, "at": 0.014598540145985401, "Esayan": 0.0072992700729927005, "taught": 0.0072992700729927005, "mathematics": 0.0072992700729927005, "Galatasaray": 0.0072992700729927005, "Turkey": 0.0072992700729927005, "became": 0.0072992700729927005, "republics": 0.0072992700729927005, "first": 0.0072992700729927005, "nonMuslim": 0.0072992700729927005, "minority": 0.0072992700729927005, "woman": 0.0072992700729927005, "to": 0.014598540145985401, "serve": 0.0072992700729927005, "parliament": 0.014598540145985401, "with": 0.0072992700729927005, "appointment": 0.0072992700729927005, "transitional": 0.0072992700729927005, "that": 0.0072992700729927005, "constructed": 0.0072992700729927005, "Constitution": 0.0072992700729927005, "published": 0.0072992700729927005, "book": 0.0072992700729927005, "Towards": 0.014598540145985401, "Past": 0.0072992700729927005, "Now": 0.0072992700729927005, "Fezaya": 0.0072992700729927005, "This": 0.0072992700729927005, "article": 0.0072992700729927005, "about": 0.0072992700729927005, "a": 0.014598540145985401, "Turkish": 0.0072992700729927005, "is": 0.0072992700729927005, "stub": 0.0072992700729927005, "You": 0.0072992700729927005, "can": 0.0072992700729927005, "help": 0.0072992700729927005, "Wikipedia": 0.0072992700729927005, "by": 0.0072992700729927005, "expanding": 0.0072992700729927005, "it": 0.0072992700729927005, "total": 137}