{"name": "Tatjana Stykel", "content": "Tatjana Stykel is a Russian mathematician who works as a professor of computational mathematics in the Institute of Mathematics of the University of Augsburg in Germany. Her research interests include numerical linear algebra, control theory, and differential-algebraic systems of equations.[1]\n Stykel earned bachelor's and master's degrees from Novosibirsk State University in 1994 and 1996. After postgraduate study as a research institute at the Humboldt University of Berlin and Chemnitz University of Technology, she earned a doctorate (Dr. rer. nat.) from the Technical University of Berlin in 2002, and a habilitation from the Technical University of Berlin in 2008.[1] Her doctoral dissertation, Analysis and Numerical Solution of Generalized Lyapunov Equation, was supervised by Volker Mehrmann.[2]\n After completing her doctorate, she was a postdoctoral researcher at the University of Calgary, and then a researcher and guest professor at the Technical University of Berlin from 2003 until 2011, when she took her current position in Augsburg.[1]\n In 2003, Styke was one of the Second Prize winners of the Leslie Fox Prize for Numerical Analysis.[3] She won the Richard von Mises Prize of the Gesellschaft f\u00fcr Angewandte Mathematik und Mechanik in 2007.[4]\n ", "tags": ["Living people", "Russian mathematicians", "20th-century German mathematicians", "Women mathematicians", "Novosibirsk State University alumni", "Technical University of Berlin alumni", "University of Augsburg faculty", "21st-century German mathematicians", "Articles with short description", "Short description matches Wikidata", "Wikipedia articles with MGP identifiers", "Year of birth missing (living people)"], "raw": "Russian mathematician\nTatjana Stykel is a Russian mathematician who works as a professor of computational mathematics in the Institute of Mathematics of the University of Augsburg in Germany. Her research interests include numerical linear algebra, control theory, and differential-algebraic systems of equations.[1]\n\nContents\n\n1 Education and career\n2 Recognition\n3 References\n4 External links\n\n\nEducation and career[edit]\nStykel earned bachelor's and master's degrees from Novosibirsk State University in 1994 and 1996. After postgraduate study as a research institute at the Humboldt University of Berlin and Chemnitz University of Technology, she earned a doctorate (Dr. rer. nat.) from the Technical University of Berlin in 2002, and a habilitation from the Technical University of Berlin in 2008.[1] Her doctoral dissertation, Analysis and Numerical Solution of Generalized Lyapunov Equation, was supervised by Volker Mehrmann.[2]\nAfter completing her doctorate, she was a postdoctoral researcher at the University of Calgary, and then a researcher and guest professor at the Technical University of Berlin from 2003 until 2011, when she took her current position in Augsburg.[1]\n\nRecognition[edit]\nIn 2003, Styke was one of the Second Prize winners of the Leslie Fox Prize for Numerical Analysis.[3] She won the Richard von Mises Prize of the Gesellschaft f\u00fcr Angewandte Mathematik und Mechanik in 2007.[4]\n\nReferences[edit]\n\n\n^ a b c Curriculum vitae, University of Augsburg, retrieved 2020-02-29\n\n^ Tatjana Stykel at the Mathematics Genealogy Project\n\n^ IMA Leslie Fox Prize for Numerical Analysis, Institute of Mathematics and its Applications, retrieved 2020-02-29\n\n^ Richard von Mises Prize winners, GAMM, retrieved 2020-02-27\n\n\nExternal links[edit]\nHome page\nTatjana Stykel publications indexed by Google Scholar\nAuthority control \nMGP: 62643\n\n\n\n\n", "Tatjana": 0.005555555555555556, "Stykel": 0.011111111111111112, "is": 0.005555555555555556, "a": 0.03888888888888889, "Russian": 0.005555555555555556, "mathematician": 0.005555555555555556, "who": 0.005555555555555556, "works": 0.005555555555555556, "as": 0.011111111111111112, "professor": 0.011111111111111112, "of": 0.08333333333333333, "computational": 0.005555555555555556, "mathematics": 0.005555555555555556, "in": 0.03888888888888889, "the": 0.06111111111111111, "Institute": 0.005555555555555556, "Mathematics": 0.005555555555555556, "University": 0.044444444444444446, "Augsburg": 0.011111111111111112, "Germany": 0.005555555555555556, "Her": 0.011111111111111112, "research": 0.011111111111111112, "interests": 0.005555555555555556, "include": 0.005555555555555556, "numerical": 0.005555555555555556, "linear": 0.005555555555555556, "algebra": 0.005555555555555556, "control": 0.005555555555555556, "theory": 0.005555555555555556, "and": 0.044444444444444446, "differentialalgebraic": 0.005555555555555556, "systems": 0.005555555555555556, "equations": 0.005555555555555556, "earned": 0.011111111111111112, "bachelors": 0.005555555555555556, "masters": 0.005555555555555556, "degrees": 0.005555555555555556, "from": 0.022222222222222223, "Novosibirsk": 0.005555555555555556, "State": 0.005555555555555556, "After": 0.011111111111111112, "postgraduate": 0.005555555555555556, "study": 0.005555555555555556, "institute": 0.005555555555555556, "at": 0.016666666666666666, "Humboldt": 0.005555555555555556, "Berlin": 0.022222222222222223, "Chemnitz": 0.005555555555555556, "Technology": 0.005555555555555556, "she": 0.016666666666666666, "doctorate": 0.011111111111111112, "Dr": 0.005555555555555556, "rer": 0.005555555555555556, "nat": 0.005555555555555556, "Technical": 0.016666666666666666, "habilitation": 0.005555555555555556, "doctoral": 0.005555555555555556, "dissertation": 0.005555555555555556, "Analysis": 0.011111111111111112, "Numerical": 0.011111111111111112, "Solution": 0.005555555555555556, "Generalized": 0.005555555555555556, "Lyapunov": 0.005555555555555556, "Equation": 0.005555555555555556, "was": 0.016666666666666666, "supervised": 0.005555555555555556, "by": 0.005555555555555556, "Volker": 0.005555555555555556, "Mehrmann": 0.005555555555555556, "completing": 0.005555555555555556, "her": 0.011111111111111112, "postdoctoral": 0.005555555555555556, "researcher": 0.011111111111111112, "Calgary": 0.005555555555555556, "then": 0.005555555555555556, "guest": 0.005555555555555556, "until": 0.005555555555555556, "when": 0.005555555555555556, "took": 0.005555555555555556, "current": 0.005555555555555556, "position": 0.005555555555555556, "In": 0.005555555555555556, "Styke": 0.005555555555555556, "one": 0.005555555555555556, "Second": 0.005555555555555556, "Prize": 0.016666666666666666, "winners": 0.005555555555555556, "Leslie": 0.005555555555555556, "Fox": 0.005555555555555556, "for": 0.005555555555555556, "She": 0.005555555555555556, "won": 0.005555555555555556, "Richard": 0.005555555555555556, "von": 0.005555555555555556, "Mises": 0.005555555555555556, "Gesellschaft": 0.005555555555555556, "f\u00fcr": 0.005555555555555556, "Angewandte": 0.005555555555555556, "Mathematik": 0.005555555555555556, "und": 0.005555555555555556, "Mechanik": 0.005555555555555556, "total": 180}