{"name": "Barbara Niethammer", "content": "Barbara Niethammer (born 1967) is a German mathematician and materials scientist who works as a professor at the Hausdorff Center for Mathematics at the University of Bonn.[1] Her research concerns partial differential equations for physical materials, and in particular the phenomenon of Ostwald ripening by which particles in liquids grow over time.\n Niethammer completed her Ph.D. in 1996 at the University of Bonn, under the supervision of Hans Wilhelm Alt. Her dissertation was Approximation of Coarsening Madels by Homogenization of a Stefan Problem.[2]\n After postdoctoral research at the Courant Institute, she returned to Bonn for her habilitation in 2002, after which she became in 2003 a professor at the Humboldt University of Berlin. She moved to the University of Oxford in 2007, where she was a fellow of St Edmund Hall. In 2012 she returned as a professor to the University of Bonn.[1]\n Niethammer won the Richard von Mises Prize of the Gesellschaft f\u00fcr Angewandte Mathematik und Mechanik in 2003 for her work on Ostwald ripening,[3] and the Whitehead Prize of the London Mathematical Society in 2011 \"for her deep and rigorous contributions to material science, especially on the Lifshitz\u2013Slyozov\u2013Wagner and Becker\u2013Doering equations\".[4][5]\n She was an invited speaker at the International Congress of Mathematicians in 2014.[6]\n ", "tags": ["1967 births", "Living people", "20th-century German mathematicians", "German materials scientists", "Women mathematicians", "Women materials scientists and engineers", "University of Bonn alumni", "Humboldt University of Berlin faculty", "Fellows of St Edmund Hall, Oxford", "University of Bonn faculty", "21st-century German mathematicians", "Articles with short description", "Short description matches Wikidata", "Wikipedia articles with DBLP identifiers", "Wikipedia articles with MGP identifiers", "Wikipedia articles with VIAF identifiers", "Wikipedia articles with WORLDCATID identifiers"], "raw": "German mathematician and materials scientist\nBarbara Niethammer (born 1967) is a German mathematician and materials scientist who works as a professor at the Hausdorff Center for Mathematics at the University of Bonn.[1] Her research concerns partial differential equations for physical materials, and in particular the phenomenon of Ostwald ripening by which particles in liquids grow over time.\n\nEducation and career[edit]\nNiethammer completed her Ph.D. in 1996 at the University of Bonn, under the supervision of Hans Wilhelm Alt. Her dissertation was Approximation of Coarsening Madels by Homogenization of a Stefan Problem.[2]\nAfter postdoctoral research at the Courant Institute, she returned to Bonn for her habilitation in 2002, after which she became in 2003 a professor at the Humboldt University of Berlin. She moved to the University of Oxford in 2007, where she was a fellow of St Edmund Hall. In 2012 she returned as a professor to the University of Bonn.[1]\n\nRecognition[edit]\nNiethammer won the Richard von Mises Prize of the Gesellschaft f\u00fcr Angewandte Mathematik und Mechanik in 2003 for her work on Ostwald ripening,[3] and the Whitehead Prize of the London Mathematical Society in 2011 \"for her deep and rigorous contributions to material science, especially on the Lifshitz\u2013Slyozov\u2013Wagner and Becker\u2013Doering equations\".[4][5]\nShe was an invited speaker at the International Congress of Mathematicians in 2014.[6]\n\nReferences[edit]\n\n\n^ a b Faculty profile, Hausdorff Center for Mathematics, retrieved 2016-06-30.\n\n^ Barbara Niethammer at the Mathematics Genealogy Project\n\n^ Richard von Mises Laureates, GAMM, retrieved 2016-06-30.\n\n^ List of LMS prize winners, retrieved 2016-06-30.\n\n^ \"Prizes of the London Mathematical Society\" (PDF), Mathematics People, Notices of the American Mathematical Society, 58 (9): 1301, October 2011.\n\n^ ICM Plenary and Invited Speakers since 1897, retrieved 2016-06-30.\n\n\nAuthority control \nDBLP: 54/9165\nMGP: 29029\nVIAF: 30242857\n WorldCat Identities: viaf-30242857\n\n\n\n\n", "Barbara": 0.005076142131979695, "Niethammer": 0.015228426395939087, "born": 0.005076142131979695, "is": 0.005076142131979695, "a": 0.030456852791878174, "German": 0.005076142131979695, "mathematician": 0.005076142131979695, "and": 0.025380710659898477, "materials": 0.01015228426395939, "scientist": 0.005076142131979695, "who": 0.005076142131979695, "works": 0.005076142131979695, "as": 0.01015228426395939, "professor": 0.015228426395939087, "at": 0.030456852791878174, "the": 0.07614213197969544, "Hausdorff": 0.005076142131979695, "Center": 0.005076142131979695, "for": 0.025380710659898477, "Mathematics": 0.005076142131979695, "University": 0.025380710659898477, "of": 0.06598984771573604, "Bonn": 0.02030456852791878, "Her": 0.01015228426395939, "research": 0.01015228426395939, "concerns": 0.005076142131979695, "partial": 0.005076142131979695, "differential": 0.005076142131979695, "equations": 0.01015228426395939, "physical": 0.005076142131979695, "in": 0.04568527918781726, "particular": 0.005076142131979695, "phenomenon": 0.005076142131979695, "Ostwald": 0.01015228426395939, "ripening": 0.01015228426395939, "by": 0.01015228426395939, "which": 0.01015228426395939, "particles": 0.005076142131979695, "liquids": 0.005076142131979695, "grow": 0.005076142131979695, "over": 0.005076142131979695, "time": 0.005076142131979695, "completed": 0.005076142131979695, "her": 0.02030456852791878, "PhD": 0.005076142131979695, "under": 0.005076142131979695, "supervision": 0.005076142131979695, "Hans": 0.005076142131979695, "Wilhelm": 0.005076142131979695, "Alt": 0.005076142131979695, "dissertation": 0.005076142131979695, "was": 0.015228426395939087, "Approximation": 0.005076142131979695, "Coarsening": 0.005076142131979695, "Madels": 0.005076142131979695, "Homogenization": 0.005076142131979695, "Stefan": 0.005076142131979695, "Problem": 0.005076142131979695, "After": 0.005076142131979695, "postdoctoral": 0.005076142131979695, "Courant": 0.005076142131979695, "Institute": 0.005076142131979695, "she": 0.02030456852791878, "returned": 0.01015228426395939, "to": 0.02030456852791878, "habilitation": 0.005076142131979695, "after": 0.005076142131979695, "became": 0.005076142131979695, "Humboldt": 0.005076142131979695, "Berlin": 0.005076142131979695, "She": 0.01015228426395939, "moved": 0.005076142131979695, "Oxford": 0.005076142131979695, "where": 0.005076142131979695, "fellow": 0.005076142131979695, "St": 0.005076142131979695, "Edmund": 0.005076142131979695, "Hall": 0.005076142131979695, "In": 0.005076142131979695, "won": 0.005076142131979695, "Richard": 0.005076142131979695, "von": 0.005076142131979695, "Mises": 0.005076142131979695, "Prize": 0.01015228426395939, "Gesellschaft": 0.005076142131979695, "f\u00fcr": 0.005076142131979695, "Angewandte": 0.005076142131979695, "Mathematik": 0.005076142131979695, "und": 0.005076142131979695, "Mechanik": 0.005076142131979695, "work": 0.005076142131979695, "on": 0.01015228426395939, "Whitehead": 0.005076142131979695, "London": 0.005076142131979695, "Mathematical": 0.005076142131979695, "Society": 0.005076142131979695, "deep": 0.005076142131979695, "rigorous": 0.005076142131979695, "contributions": 0.005076142131979695, "material": 0.005076142131979695, "science": 0.005076142131979695, "especially": 0.005076142131979695, "LifshitzSlyozovWagner": 0.005076142131979695, "BeckerDoering": 0.005076142131979695, "an": 0.005076142131979695, "invited": 0.005076142131979695, "speaker": 0.005076142131979695, "International": 0.005076142131979695, "Congress": 0.005076142131979695, "Mathematicians": 0.005076142131979695, "total": 197}